NAME : CMT14
COMMENT : 866.37
TYPE : CVRP
DIMENSION : 101
EDGE_WEIGHT_TYPE : EUC_2D
CAPACITY : 200
DISTANCE : 1040
SERVICE_TIME : 90
NODE_COORD_SECTION
1 40 50
2 45 68
3 45 70
4 42 66
5 42 68
6 42 65
7 40 69
8 40 66
9 38 68
10 38 70
11 35 66
12 35 69
13 25 85
14 22 75
15 22 85
16 20 80
17 20 85
18 18 75
19 15 75
20 15 80
21 30 50
22 30 52
23 28 52
24 28 55
25 25 50
26 25 52
27 25 55
28 23 52
29 23 55
30 20 50
31 20 55
32 10 35
33 10 40
34 8 40
35 8 45
36 5 35
37 5 45
38 2 40
39 0 40
40 0 45
41 35 30
42 35 32
43 33 32
44 33 35
45 32 30
46 30 30
47 30 32
48 30 35
49 28 30
50 28 35
51 26 32
52 25 30
53 25 35
54 44 5
55 42 10
56 42 15
57 40 5
58 40 15
59 38 5
60 38 15
61 35 5
62 50 30
63 50 35
64 50 40
65 48 30
66 48 40
67 47 35
68 47 40
69 45 30
70 45 35
71 95 30
72 95 35
73 53 30
74 92 30
75 53 35
76 45 65
77 90 35
78 88 30
79 88 35
80 87 30
81 85 25
82 85 35
83 75 55
84 72 55
85 70 58
86 68 60
87 66 55
88 65 55
89 65 60
90 63 58
91 60 55
92 60 60
93 67 85
94 65 85
95 65 82
96 62 80
97 60 80
98 60 85
99 58 75
100 55 80
101 55 85
PICKUP_AND_DELIVERY_SECTION
1 0 0 1000000000 0 0 0
2 0 0 1000000000 0 3.3824 6.6176
3 0 0 1000000000 0 10.7143 19.2857
4 0 0 1000000000 0 3.6364 6.3636
5 0 0 1000000000 0 3.8235 6.1765
6 0 0 1000000000 0 3.5385 6.4615
7 0 0 1000000000 0 8.4058 11.5942
8 0 0 1000000000 0 7.8788 12.1212
9 0 0 1000000000 0 8.8235 11.1765
10 0 0 1000000000 0 4.5714 5.4286
11 0 0 1000000000 0 4.697 5.303
12 0 0 1000000000 0 4.9275 5.0725
13 0 0 1000000000 0 14.1176 5.8824
14 0 0 1000000000 0 21.2 8.8
15 0 0 1000000000 0 7.4118 2.5882
16 0 0 1000000000 0 30 10
17 0 0 1000000000 0 30.5882 9.4118
18 0 0 1000000000 0 15.2 4.8
19 0 0 1000000000 0 16 4
20 0 0 1000000000 0 8.125 1.875
21 0 0 1000000000 0 4 6
22 0 0 1000000000 0 8.4615 11.5385
23 0 0 1000000000 0 9.2308 10.7692
24 0 0 1000000000 0 4.9091 5.0909
25 0 0 1000000000 0 5 5
26 0 0 1000000000 0 20.7692 19.2308
27 0 0 1000000000 0 5.4545 4.5455
28 0 0 1000000000 0 5.5769 4.4231
29 0 0 1000000000 0 11.6364 8.3636
30 0 0 1000000000 0 6 4
31 0 0 1000000000 0 6.3636 3.6364
32 0 0 1000000000 0 14.2857 5.7143
33 0 0 1000000000 0 22.5 7.5
34 0 0 1000000000 0 32 8
35 0 0 1000000000 0 16.4444 3.5556
36 0 0 1000000000 0 8.5714 1.4286
37 0 0 1000000000 0 8.8889 1.1111
38 0 0 1000000000 0 19 1
39 0 0 1000000000 0 30 0
40 0 0 1000000000 0 20 0
41 0 0 1000000000 0 1.4286 8.5714
42 0 0 1000000000 0 0.8571 9.1429
43 0 0 1000000000 0 0.6061 19.3939
44 0 0 1000000000 0 0.5714 9.4286
45 0 0 1000000000 0 0.625 9.375
46 0 0 1000000000 0 0 10
47 0 0 1000000000 0 1.875 28.125
48 0 0 1000000000 0 1.4286 8.5714
49 0 0 1000000000 0 0.6667 9.3333
50 0 0 1000000000 0 2 8
51 0 0 1000000000 0 1.875 8.125
52 0 0 1000000000 0 1.6667 8.3333
53 0 0 1000000000 0 2.8571 7.1429
54 0 0 1000000000 0 17.7273 2.2727
55 0 0 1000000000 0 30.4762 9.5238
56 0 0 1000000000 0 6.4286 3.5714
57 0 0 1000000000 0 26.25 3.75
58 0 0 1000000000 0 25 15
59 0 0 1000000000 0 26.0526 3.9474
60 0 0 1000000000 0 6.0526 3.9474
61 0 0 1000000000 0 17.1429 2.8571
62 0 0 1000000000 0 4 6
63 0 0 1000000000 0 6 14
64 0 0 1000000000 0 10 40
65 0 0 1000000000 0 3.75 6.25
66 0 0 1000000000 0 1.6667 8.3333
67 0 0 1000000000 0 2.5532 7.4468
68 0 0 1000000000 0 1.4894 8.5106
69 0 0 1000000000 0 3.3333 6.6667
70 0 0 1000000000 0 2.2222 7.7778
71 0 0 1000000000 0 20.5263 9.4737
72 0 0 1000000000 0 12.6316 7.3684
73 0 0 1000000000 0 4.3396 5.6604
74 0 0 1000000000 0 6.7391 3.2609
75 0 0 1000000000 0 16.9811 33.0189
76 0 0 1000000000 0 6.1538 13.8462
77 0 0 1000000000 0 6.1111 3.8889
78 0 0 1000000000 0 6.5909 3.4091
79 0 0 1000000000 0 12.0455 7.9545
80 0 0 1000000000 0 6.5517 3.4483
81 0 0 1000000000 0 7.0588 2.9412
82 0 0 1000000000 0 17.6471 12.3529
83 0 0 1000000000 0 5.3333 14.6667
84 0 0 1000000000 0 2.3611 7.6389
85 0 0 1000000000 0 3.4286 16.5714
86 0 0 1000000000 0 3.5294 26.4706
87 0 0 1000000000 0 1.6667 8.3333
88 0 0 1000000000 0 3.0769 16.9231
89 0 0 1000000000 0 2.3077 27.6923
90 0 0 1000000000 0 0.7937 9.2063
91 0 0 1000000000 0 0.8333 9.1667
92 0 0 1000000000 0 0 10
93 0 0 1000000000 0 4.2353 15.7647
94 0 0 1000000000 0 9.4118 30.5882
95 0 0 1000000000 0 2.0732 7.9268
96 0 0 1000000000 0 6.75 23.25
97 0 0 1000000000 0 2.5 7.5
98 0 0 1000000000 0 8.8235 21.1765
99 0 0 1000000000 0 4.5333 15.4667
100 0 0 1000000000 0 3.125 6.875
101 0 0 1000000000 0 7.0588 12.9412
